%%%mzn-stat: initTime=0.012839243
%%%mzn-stat: objective=182
%%%mzn-stat: nodes=331219
%%%mzn-stat: restarts=161
%%%mzn-stat: peakDepth=553
%%%mzn-stat: solveTime=122.021283755
%%%mzn-stat: variables=1074
%%%mzn-stat: propagators=788
%%%mzn-stat: failures=242721
%%%mzn-stat: propagations=7459058
%%%mzn-stat: nogoods=242721
%%%mzn-stat: AverageConflictSize=19.85599927488763
%%%mzn-stat: NumUnitNogoodsLearned=181
%%%mzn-stat: AverageLearnedNogoodLength=28.31269647043313
%%%mzn-stat: AverageBacktrackAmount=0
%%%mzn-stat: AverageLbd=13.629842494056962
%%%mzn-stat-end
maxleg = 182;
succ = array1d(1..100,[81, 12, 45, 32, 37, 79, 48, 68, 29, 42, 85, 84, 54, 94, 65, 28, 74, 20, 40, 43, 56, 52, 70, 53, 80, 33, 83, 91, 66, 47, 95, 3, 92, 19, 78, 59, 58, 25, 73, 75, 71, 93, 89, 88, 35, 86, 23, 21, 24, 13, 76, 69, 14, 57, 61, 8, 46, 100, 34, 7, 44, 64, 77, 90, 50, 55, 6, 99, 67, 63, 82, 10, 98, 11, 17, 5, 1, 62, 97, 30, 41, 39, 72, 27, 4, 18, 2, 26, 96, 16, 51, 15, 36, 60, 38, 22, 31, 49, 87, 9]);
% time elapsed: 123.53 s
----------
==========
% time elapsed: 123.53 s
%%%mzn-stat: initTime=0.012839243
%%%mzn-stat: objective=182
%%%mzn-stat: nodes=331219
%%%mzn-stat: restarts=161
%%%mzn-stat: peakDepth=553
%%%mzn-stat: solveTime=122.021290384
%%%mzn-stat: variables=1074
%%%mzn-stat: propagators=788
%%%mzn-stat: failures=242721
%%%mzn-stat: propagations=7459058
%%%mzn-stat: nogoods=242721
%%%mzn-stat: AverageConflictSize=19.85599927488763
%%%mzn-stat: NumUnitNogoodsLearned=181
%%%mzn-stat: AverageLearnedNogoodLength=28.31269647043313
%%%mzn-stat: AverageBacktrackAmount=0
%%%mzn-stat: AverageLbd=13.629842494056962
%%%mzn-stat-end
